; Benchmark for LTL-sketching problem
(set-logic QF_UF)
(set-info :status unknown)
(declare-fun z_0_0 () Bool)
(declare-fun z_0_11 () Bool)
(declare-fun z_0_19 () Bool)
(declare-fun z_0_30 () Bool)
(declare-fun z_0_34 () Bool)
(declare-fun z_0_38 () Bool)
(declare-fun z_0_41 () Bool)
(declare-fun z_0_42 () Bool)
(declare-fun z_0_46 () Bool)
(declare-fun z_0_56 () Bool)
(declare-fun z_0_67 () Bool)
(declare-fun x_0_G () Bool)
(declare-fun x_0_F () Bool)
(declare-fun x_0_X () Bool)
(declare-fun x_0_! () Bool)
(declare-fun z_2_0 () Bool)
(declare-fun z_2_1 () Bool)
(declare-fun z_2_10 () Bool)
(declare-fun z_2_9 () Bool)
(declare-fun z_2_8 () Bool)
(declare-fun z_2_7 () Bool)
(declare-fun z_2_6 () Bool)
(declare-fun z_2_5 () Bool)
(declare-fun z_2_4 () Bool)
(declare-fun z_2_3 () Bool)
(declare-fun z_2_2 () Bool)
(declare-fun z_0_1 () Bool)
(declare-fun z_0_2 () Bool)
(declare-fun z_0_3 () Bool)
(declare-fun z_0_4 () Bool)
(declare-fun z_0_5 () Bool)
(declare-fun z_0_6 () Bool)
(declare-fun z_0_7 () Bool)
(declare-fun z_0_8 () Bool)
(declare-fun z_0_9 () Bool)
(declare-fun z_0_10 () Bool)
(declare-fun z_2_11 () Bool)
(declare-fun z_2_12 () Bool)
(declare-fun z_2_18 () Bool)
(declare-fun z_2_17 () Bool)
(declare-fun z_2_16 () Bool)
(declare-fun z_2_15 () Bool)
(declare-fun z_2_14 () Bool)
(declare-fun z_2_13 () Bool)
(declare-fun z_0_12 () Bool)
(declare-fun z_0_13 () Bool)
(declare-fun z_0_14 () Bool)
(declare-fun z_0_15 () Bool)
(declare-fun z_0_16 () Bool)
(declare-fun z_0_17 () Bool)
(declare-fun z_0_18 () Bool)
(declare-fun z_2_19 () Bool)
(declare-fun z_2_20 () Bool)
(declare-fun z_2_29 () Bool)
(declare-fun z_2_28 () Bool)
(declare-fun z_2_27 () Bool)
(declare-fun z_2_26 () Bool)
(declare-fun z_2_25 () Bool)
(declare-fun z_2_24 () Bool)
(declare-fun z_2_23 () Bool)
(declare-fun z_2_22 () Bool)
(declare-fun z_2_21 () Bool)
(declare-fun z_0_20 () Bool)
(declare-fun z_0_21 () Bool)
(declare-fun z_0_22 () Bool)
(declare-fun z_0_23 () Bool)
(declare-fun z_0_24 () Bool)
(declare-fun z_0_25 () Bool)
(declare-fun z_0_26 () Bool)
(declare-fun z_0_27 () Bool)
(declare-fun z_0_28 () Bool)
(declare-fun z_0_29 () Bool)
(declare-fun z_2_30 () Bool)
(declare-fun z_2_31 () Bool)
(declare-fun z_2_33 () Bool)
(declare-fun z_2_32 () Bool)
(declare-fun z_0_31 () Bool)
(declare-fun z_0_32 () Bool)
(declare-fun z_0_33 () Bool)
(declare-fun z_2_34 () Bool)
(declare-fun z_2_35 () Bool)
(declare-fun z_2_37 () Bool)
(declare-fun z_2_36 () Bool)
(declare-fun z_0_35 () Bool)
(declare-fun z_0_36 () Bool)
(declare-fun z_0_37 () Bool)
(declare-fun z_2_38 () Bool)
(declare-fun z_2_39 () Bool)
(declare-fun z_2_41 () Bool)
(declare-fun z_2_40 () Bool)
(declare-fun z_0_39 () Bool)
(declare-fun z_0_40 () Bool)
(declare-fun z_2_42 () Bool)
(declare-fun z_2_43 () Bool)
(declare-fun z_2_45 () Bool)
(declare-fun z_2_44 () Bool)
(declare-fun z_0_43 () Bool)
(declare-fun z_0_44 () Bool)
(declare-fun z_0_45 () Bool)
(declare-fun z_2_46 () Bool)
(declare-fun z_2_47 () Bool)
(declare-fun z_2_55 () Bool)
(declare-fun z_2_54 () Bool)
(declare-fun z_2_53 () Bool)
(declare-fun z_2_52 () Bool)
(declare-fun z_2_51 () Bool)
(declare-fun z_2_50 () Bool)
(declare-fun z_2_49 () Bool)
(declare-fun z_2_48 () Bool)
(declare-fun z_0_47 () Bool)
(declare-fun z_0_48 () Bool)
(declare-fun z_0_49 () Bool)
(declare-fun z_0_50 () Bool)
(declare-fun z_0_51 () Bool)
(declare-fun z_0_52 () Bool)
(declare-fun z_0_53 () Bool)
(declare-fun z_0_54 () Bool)
(declare-fun z_0_55 () Bool)
(declare-fun z_2_56 () Bool)
(declare-fun z_2_57 () Bool)
(declare-fun z_2_66 () Bool)
(declare-fun z_2_65 () Bool)
(declare-fun z_2_64 () Bool)
(declare-fun z_2_63 () Bool)
(declare-fun z_2_62 () Bool)
(declare-fun z_2_61 () Bool)
(declare-fun z_2_60 () Bool)
(declare-fun z_2_59 () Bool)
(declare-fun z_2_58 () Bool)
(declare-fun z_0_57 () Bool)
(declare-fun z_0_58 () Bool)
(declare-fun z_0_59 () Bool)
(declare-fun z_0_60 () Bool)
(declare-fun z_0_61 () Bool)
(declare-fun z_0_62 () Bool)
(declare-fun z_0_63 () Bool)
(declare-fun z_0_64 () Bool)
(declare-fun z_0_65 () Bool)
(declare-fun z_0_66 () Bool)
(declare-fun z_2_67 () Bool)
(declare-fun z_2_68 () Bool)
(declare-fun z_2_70 () Bool)
(declare-fun z_2_69 () Bool)
(declare-fun z_0_68 () Bool)
(declare-fun z_0_69 () Bool)
(declare-fun z_0_70 () Bool)
(declare-fun x_2_p () Bool)
(declare-fun x_2_-> () Bool)
(declare-fun x_2_U () Bool)
(declare-fun x_2_v () Bool)
(declare-fun x_2_& () Bool)
(declare-fun x_2_X () Bool)
(declare-fun x_2_! () Bool)
(declare-fun x_2_F () Bool)
(declare-fun x_2_G () Bool)
(assert
 z_0_0)
(assert
 z_0_11)
(assert
 z_0_19)
(assert
 z_0_30)
(assert
 z_0_34)
(assert
 z_0_38)
(assert
 (not z_0_41))
(assert
 z_0_42)
(assert
 z_0_46)
(assert
 z_0_56)
(assert
 z_0_67)
(assert
 (or x_0_! x_0_X x_0_F x_0_G))
(assert
 (let (($x15 (not x_0_G)))
 (let (($x13 (not x_0_F)))
 (let (($x19 (or $x13 $x15)))
 (let (($x11 (not x_0_X)))
 (let (($x18 (or $x11 $x15)))
 (let (($x17 (or $x11 $x13)))
 (let (($x10 (not x_0_!)))
 (let (($x16 (or $x10 $x15)))
 (let (($x14 (or $x10 $x13)))
 (let (($x12 (or $x10 $x11)))
 (and $x12 $x14 $x16 $x17 $x18 $x19))))))))))))
(assert
 (=> x_0_! (= z_0_0 (not z_2_0))))
(assert
 (let (($x1472 (= z_0_0 z_2_1)))
 (=> x_0_X $x1472)))
(assert
 (let (($x1461 (or z_2_0 z_2_1 z_2_2 z_2_3 z_2_4 z_2_5 z_2_6 z_2_7 z_2_8 z_2_9 z_2_10)))
 (=> x_0_F (= z_0_0 $x1461))))
(assert
 (let (($x1451 (and z_2_0 z_2_1 z_2_2 z_2_3 z_2_4 z_2_5 z_2_6 z_2_7 z_2_8 z_2_9 z_2_10)))
 (let (($x1453 (= z_0_0 $x1451)))
 (=> x_0_G $x1453))))
(assert
 (=> x_0_! (= z_0_1 (not z_2_1))))
(assert
 (let (($x4811 (= z_0_1 z_2_2)))
 (=> x_0_X $x4811)))
(assert
 (let (($x4814 (or z_2_1 z_2_2 z_2_3 z_2_4 z_2_5 z_2_6 z_2_7 z_2_8 z_2_9 z_2_10)))
 (=> x_0_F (= z_0_1 $x4814))))
(assert
 (let (($x4820 (and z_2_1 z_2_2 z_2_3 z_2_4 z_2_5 z_2_6 z_2_7 z_2_8 z_2_9 z_2_10)))
 (let (($x4821 (= z_0_1 $x4820)))
 (=> x_0_G $x4821))))
(assert
 (=> x_0_! (= z_0_2 (not z_2_2))))
(assert
 (let (($x4830 (= z_0_2 z_2_3)))
 (=> x_0_X $x4830)))
(assert
 (let (($x4833 (or z_2_2 z_2_3 z_2_4 z_2_5 z_2_6 z_2_7 z_2_8 z_2_9 z_2_10)))
 (=> x_0_F (= z_0_2 $x4833))))
(assert
 (let (($x4839 (and z_2_2 z_2_3 z_2_4 z_2_5 z_2_6 z_2_7 z_2_8 z_2_9 z_2_10)))
 (let (($x4840 (= z_0_2 $x4839)))
 (=> x_0_G $x4840))))
(assert
 (=> x_0_! (= z_0_3 (not z_2_3))))
(assert
 (let (($x4849 (= z_0_3 z_2_4)))
 (=> x_0_X $x4849)))
(assert
 (let (($x4853 (= z_0_3 (or z_2_3 z_2_4 z_2_5 z_2_6 z_2_7 z_2_8 z_2_9 z_2_10))))
 (=> x_0_F $x4853)))
(assert
 (let (($x4859 (= z_0_3 (and z_2_3 z_2_4 z_2_5 z_2_6 z_2_7 z_2_8 z_2_9 z_2_10))))
 (=> x_0_G $x4859)))
(assert
 (=> x_0_! (= z_0_4 (not z_2_4))))
(assert
 (let (($x4868 (= z_0_4 z_2_5)))
 (=> x_0_X $x4868)))
(assert
 (let (($x4872 (= z_0_4 (or z_2_4 z_2_5 z_2_6 z_2_7 z_2_8 z_2_9 z_2_10))))
 (=> x_0_F $x4872)))
(assert
 (let (($x4878 (= z_0_4 (and z_2_4 z_2_5 z_2_6 z_2_7 z_2_8 z_2_9 z_2_10))))
 (=> x_0_G $x4878)))
(assert
 (=> x_0_! (= z_0_5 (not z_2_5))))
(assert
 (let (($x4887 (= z_0_5 z_2_6)))
 (=> x_0_X $x4887)))
(assert
 (=> x_0_F (= z_0_5 (or z_2_5 z_2_6 z_2_7 z_2_8 z_2_9 z_2_10))))
(assert
 (let (($x4897 (= z_0_5 (and z_2_5 z_2_6 z_2_7 z_2_8 z_2_9 z_2_10))))
 (=> x_0_G $x4897)))
(assert
 (=> x_0_! (= z_0_6 (not z_2_6))))
(assert
 (let (($x4906 (= z_0_6 z_2_7)))
 (=> x_0_X $x4906)))
(assert
 (=> x_0_F (= z_0_6 (or z_2_6 z_2_7 z_2_8 z_2_9 z_2_10 z_2_5))))
(assert
 (let (($x4915 (= z_0_6 (and z_2_6 z_2_7 z_2_8 z_2_9 z_2_10 z_2_5))))
 (=> x_0_G $x4915)))
(assert
 (=> x_0_! (= z_0_7 (not z_2_7))))
(assert
 (let (($x4924 (= z_0_7 z_2_8)))
 (=> x_0_X $x4924)))
(assert
 (=> x_0_F (= z_0_7 (or z_2_7 z_2_8 z_2_9 z_2_10 z_2_5 z_2_6))))
(assert
 (let (($x4933 (= z_0_7 (and z_2_7 z_2_8 z_2_9 z_2_10 z_2_5 z_2_6))))
 (=> x_0_G $x4933)))
(assert
 (=> x_0_! (= z_0_8 (not z_2_8))))
(assert
 (let (($x4942 (= z_0_8 z_2_9)))
 (=> x_0_X $x4942)))
(assert
 (=> x_0_F (= z_0_8 (or z_2_8 z_2_9 z_2_10 z_2_5 z_2_6 z_2_7))))
(assert
 (let (($x4951 (= z_0_8 (and z_2_8 z_2_9 z_2_10 z_2_5 z_2_6 z_2_7))))
 (=> x_0_G $x4951)))
(assert
 (=> x_0_! (= z_0_9 (not z_2_9))))
(assert
 (let (($x4960 (= z_0_9 z_2_10)))
 (=> x_0_X $x4960)))
(assert
 (=> x_0_F (= z_0_9 (or z_2_9 z_2_10 z_2_5 z_2_6 z_2_7 z_2_8))))
(assert
 (let (($x4969 (= z_0_9 (and z_2_9 z_2_10 z_2_5 z_2_6 z_2_7 z_2_8))))
 (=> x_0_G $x4969)))
(assert
 (=> x_0_! (= z_0_10 (not z_2_10))))
(assert
 (let (($x4978 (= z_0_10 z_2_5)))
 (=> x_0_X $x4978)))
(assert
 (let (($x4982 (= z_0_10 (or z_2_10 z_2_5 z_2_6 z_2_7 z_2_8 z_2_9))))
 (=> x_0_F $x4982)))
(assert
 (let (($x4986 (= z_0_10 (and z_2_10 z_2_5 z_2_6 z_2_7 z_2_8 z_2_9))))
 (=> x_0_G $x4986)))
(assert
 (=> x_0_! (= z_0_11 (not z_2_11))))
(assert
 (let (($x4997 (= z_0_11 z_2_12)))
 (=> x_0_X $x4997)))
(assert
 (let (($x5006 (or z_2_11 z_2_12 z_2_13 z_2_14 z_2_15 z_2_16 z_2_17 z_2_18)))
 (let (($x5007 (= z_0_11 $x5006)))
 (=> x_0_F $x5007))))
(assert
 (let (($x5010 (and z_2_11 z_2_12 z_2_13 z_2_14 z_2_15 z_2_16 z_2_17 z_2_18)))
 (let (($x5011 (= z_0_11 $x5010)))
 (=> x_0_G $x5011))))
(assert
 (=> x_0_! (= z_0_12 (not z_2_12))))
(assert
 (let (($x5020 (= z_0_12 z_2_13)))
 (=> x_0_X $x5020)))
(assert
 (let (($x5024 (= z_0_12 (or z_2_12 z_2_13 z_2_14 z_2_15 z_2_16 z_2_17 z_2_18))))
 (=> x_0_F $x5024)))
(assert
 (let (($x5028 (= z_0_12 (and z_2_12 z_2_13 z_2_14 z_2_15 z_2_16 z_2_17 z_2_18))))
 (=> x_0_G $x5028)))
(assert
 (=> x_0_! (= z_0_13 (not z_2_13))))
(assert
 (let (($x5037 (= z_0_13 z_2_14)))
 (=> x_0_X $x5037)))
(assert
 (let (($x5041 (= z_0_13 (or z_2_13 z_2_14 z_2_15 z_2_16 z_2_17 z_2_18))))
 (=> x_0_F $x5041)))
(assert
 (let (($x5045 (= z_0_13 (and z_2_13 z_2_14 z_2_15 z_2_16 z_2_17 z_2_18))))
 (=> x_0_G $x5045)))
(assert
 (=> x_0_! (= z_0_14 (not z_2_14))))
(assert
 (let (($x5054 (= z_0_14 z_2_15)))
 (=> x_0_X $x5054)))
(assert
 (let (($x5057 (or z_2_14 z_2_15 z_2_16 z_2_17 z_2_18)))
 (let (($x5058 (= z_0_14 $x5057)))
 (=> x_0_F $x5058))))
(assert
 (let (($x5062 (= z_0_14 (and z_2_14 z_2_15 z_2_16 z_2_17 z_2_18))))
 (=> x_0_G $x5062)))
(assert
 (=> x_0_! (= z_0_15 (not z_2_15))))
(assert
 (let (($x5071 (= z_0_15 z_2_16)))
 (=> x_0_X $x5071)))
(assert
 (=> x_0_F (= z_0_15 (or z_2_15 z_2_16 z_2_17 z_2_18 z_2_14))))
(assert
 (let (($x5080 (= z_0_15 (and z_2_15 z_2_16 z_2_17 z_2_18 z_2_14))))
 (=> x_0_G $x5080)))
(assert
 (=> x_0_! (= z_0_16 (not z_2_16))))
(assert
 (let (($x5089 (= z_0_16 z_2_17)))
 (=> x_0_X $x5089)))
(assert
 (=> x_0_F (= z_0_16 (or z_2_16 z_2_17 z_2_18 z_2_14 z_2_15))))
(assert
 (let (($x5098 (= z_0_16 (and z_2_16 z_2_17 z_2_18 z_2_14 z_2_15))))
 (=> x_0_G $x5098)))
(assert
 (=> x_0_! (= z_0_17 (not z_2_17))))
(assert
 (let (($x5107 (= z_0_17 z_2_18)))
 (=> x_0_X $x5107)))
(assert
 (=> x_0_F (= z_0_17 (or z_2_17 z_2_18 z_2_14 z_2_15 z_2_16))))
(assert
 (let (($x5116 (= z_0_17 (and z_2_17 z_2_18 z_2_14 z_2_15 z_2_16))))
 (=> x_0_G $x5116)))
(assert
 (=> x_0_! (= z_0_18 (not z_2_18))))
(assert
 (let (($x5125 (= z_0_18 z_2_14)))
 (=> x_0_X $x5125)))
(assert
 (=> x_0_F (= z_0_18 (or z_2_18 z_2_14 z_2_15 z_2_16 z_2_17))))
(assert
 (let (($x5134 (= z_0_18 (and z_2_18 z_2_14 z_2_15 z_2_16 z_2_17))))
 (=> x_0_G $x5134)))
(assert
 (=> x_0_! (= z_0_19 (not z_2_19))))
(assert
 (let (($x5145 (= z_0_19 z_2_20)))
 (=> x_0_X $x5145)))
(assert
 (let (($x5157 (or z_2_19 z_2_20 z_2_21 z_2_22 z_2_23 z_2_24 z_2_25 z_2_26 z_2_27 z_2_28 z_2_29)))
 (let (($x5158 (= z_0_19 $x5157)))
 (=> x_0_F $x5158))))
(assert
 (let (($x5161 (and z_2_19 z_2_20 z_2_21 z_2_22 z_2_23 z_2_24 z_2_25 z_2_26 z_2_27 z_2_28 z_2_29)))
 (let (($x5162 (= z_0_19 $x5161)))
 (=> x_0_G $x5162))))
(assert
 (=> x_0_! (= z_0_20 (not z_2_20))))
(assert
 (let (($x5171 (= z_0_20 z_2_21)))
 (=> x_0_X $x5171)))
(assert
 (let (($x5174 (or z_2_20 z_2_21 z_2_22 z_2_23 z_2_24 z_2_25 z_2_26 z_2_27 z_2_28 z_2_29)))
 (let (($x5175 (= z_0_20 $x5174)))
 (=> x_0_F $x5175))))
(assert
 (let (($x5178 (and z_2_20 z_2_21 z_2_22 z_2_23 z_2_24 z_2_25 z_2_26 z_2_27 z_2_28 z_2_29)))
 (let (($x5179 (= z_0_20 $x5178)))
 (=> x_0_G $x5179))))
(assert
 (=> x_0_! (= z_0_21 (not z_2_21))))
(assert
 (let (($x5188 (= z_0_21 z_2_22)))
 (=> x_0_X $x5188)))
(assert
 (let (($x5191 (or z_2_21 z_2_22 z_2_23 z_2_24 z_2_25 z_2_26 z_2_27 z_2_28 z_2_29)))
 (let (($x5192 (= z_0_21 $x5191)))
 (=> x_0_F $x5192))))
(assert
 (let (($x5195 (and z_2_21 z_2_22 z_2_23 z_2_24 z_2_25 z_2_26 z_2_27 z_2_28 z_2_29)))
 (let (($x5196 (= z_0_21 $x5195)))
 (=> x_0_G $x5196))))
(assert
 (=> x_0_! (= z_0_22 (not z_2_22))))
(assert
 (let (($x5205 (= z_0_22 z_2_23)))
 (=> x_0_X $x5205)))
(assert
 (let (($x5208 (or z_2_22 z_2_23 z_2_24 z_2_25 z_2_26 z_2_27 z_2_28 z_2_29)))
 (let (($x5209 (= z_0_22 $x5208)))
 (=> x_0_F $x5209))))
(assert
 (let (($x5212 (and z_2_22 z_2_23 z_2_24 z_2_25 z_2_26 z_2_27 z_2_28 z_2_29)))
 (let (($x5213 (= z_0_22 $x5212)))
 (=> x_0_G $x5213))))
(assert
 (=> x_0_! (= z_0_23 (not z_2_23))))
(assert
 (let (($x5222 (= z_0_23 z_2_24)))
 (=> x_0_X $x5222)))
(assert
 (let (($x5226 (= z_0_23 (or z_2_23 z_2_24 z_2_25 z_2_26 z_2_27 z_2_28 z_2_29))))
 (=> x_0_F $x5226)))
(assert
 (let (($x5230 (= z_0_23 (and z_2_23 z_2_24 z_2_25 z_2_26 z_2_27 z_2_28 z_2_29))))
 (=> x_0_G $x5230)))
(assert
 (=> x_0_! (= z_0_24 (not z_2_24))))
(assert
 (let (($x5239 (= z_0_24 z_2_25)))
 (=> x_0_X $x5239)))
(assert
 (let (($x5242 (or z_2_24 z_2_25 z_2_26 z_2_27 z_2_28 z_2_29)))
 (let (($x5243 (= z_0_24 $x5242)))
 (=> x_0_F $x5243))))
(assert
 (let (($x5247 (= z_0_24 (and z_2_24 z_2_25 z_2_26 z_2_27 z_2_28 z_2_29))))
 (=> x_0_G $x5247)))
(assert
 (=> x_0_! (= z_0_25 (not z_2_25))))
(assert
 (let (($x5256 (= z_0_25 z_2_26)))
 (=> x_0_X $x5256)))
(assert
 (=> x_0_F (= z_0_25 (or z_2_25 z_2_26 z_2_27 z_2_28 z_2_29 z_2_24))))
(assert
 (let (($x5265 (= z_0_25 (and z_2_25 z_2_26 z_2_27 z_2_28 z_2_29 z_2_24))))
 (=> x_0_G $x5265)))
(assert
 (=> x_0_! (= z_0_26 (not z_2_26))))
(assert
 (let (($x5274 (= z_0_26 z_2_27)))
 (=> x_0_X $x5274)))
(assert
 (=> x_0_F (= z_0_26 (or z_2_26 z_2_27 z_2_28 z_2_29 z_2_24 z_2_25))))
(assert
 (let (($x5283 (= z_0_26 (and z_2_26 z_2_27 z_2_28 z_2_29 z_2_24 z_2_25))))
 (=> x_0_G $x5283)))
(assert
 (=> x_0_! (= z_0_27 (not z_2_27))))
(assert
 (let (($x5292 (= z_0_27 z_2_28)))
 (=> x_0_X $x5292)))
(assert
 (=> x_0_F (= z_0_27 (or z_2_27 z_2_28 z_2_29 z_2_24 z_2_25 z_2_26))))
(assert
 (let (($x5301 (= z_0_27 (and z_2_27 z_2_28 z_2_29 z_2_24 z_2_25 z_2_26))))
 (=> x_0_G $x5301)))
(assert
 (=> x_0_! (= z_0_28 (not z_2_28))))
(assert
 (let (($x5310 (= z_0_28 z_2_29)))
 (=> x_0_X $x5310)))
(assert
 (=> x_0_F (= z_0_28 (or z_2_28 z_2_29 z_2_24 z_2_25 z_2_26 z_2_27))))
(assert
 (let (($x5319 (= z_0_28 (and z_2_28 z_2_29 z_2_24 z_2_25 z_2_26 z_2_27))))
 (=> x_0_G $x5319)))
(assert
 (=> x_0_! (= z_0_29 (not z_2_29))))
(assert
 (let (($x5328 (= z_0_29 z_2_24)))
 (=> x_0_X $x5328)))
(assert
 (=> x_0_F (= z_0_29 (or z_2_29 z_2_24 z_2_25 z_2_26 z_2_27 z_2_28))))
(assert
 (let (($x5337 (= z_0_29 (and z_2_29 z_2_24 z_2_25 z_2_26 z_2_27 z_2_28))))
 (=> x_0_G $x5337)))
(assert
 (=> x_0_! (= z_0_30 (not z_2_30))))
(assert
 (let (($x5348 (= z_0_30 z_2_31)))
 (=> x_0_X $x5348)))
(assert
 (let (($x5353 (or z_2_30 z_2_31 z_2_32 z_2_33 z_2_23 z_2_24 z_2_25 z_2_26 z_2_27 z_2_28 z_2_29)))
 (=> x_0_F (= z_0_30 $x5353))))
(assert
 (let (($x5359 (and z_2_30 z_2_31 z_2_32 z_2_33 z_2_23 z_2_24 z_2_25 z_2_26 z_2_27 z_2_28 z_2_29)))
 (let (($x5360 (= z_0_30 $x5359)))
 (=> x_0_G $x5360))))
(assert
 (=> x_0_! (= z_0_31 (not z_2_31))))
(assert
 (let (($x5369 (= z_0_31 z_2_32)))
 (=> x_0_X $x5369)))
(assert
 (let (($x5372 (or z_2_31 z_2_32 z_2_33 z_2_23 z_2_24 z_2_25 z_2_26 z_2_27 z_2_28 z_2_29)))
 (=> x_0_F (= z_0_31 $x5372))))
(assert
 (let (($x5378 (and z_2_31 z_2_32 z_2_33 z_2_23 z_2_24 z_2_25 z_2_26 z_2_27 z_2_28 z_2_29)))
 (let (($x5379 (= z_0_31 $x5378)))
 (=> x_0_G $x5379))))
(assert
 (=> x_0_! (= z_0_32 (not z_2_32))))
(assert
 (let (($x5388 (= z_0_32 z_2_33)))
 (=> x_0_X $x5388)))
(assert
 (let (($x5391 (or z_2_32 z_2_33 z_2_23 z_2_24 z_2_25 z_2_26 z_2_27 z_2_28 z_2_29)))
 (=> x_0_F (= z_0_32 $x5391))))
(assert
 (let (($x5397 (and z_2_32 z_2_33 z_2_23 z_2_24 z_2_25 z_2_26 z_2_27 z_2_28 z_2_29)))
 (let (($x5398 (= z_0_32 $x5397)))
 (=> x_0_G $x5398))))
(assert
 (=> x_0_! (= z_0_33 (not z_2_33))))
(assert
 (let (($x5407 (= z_0_33 z_2_23)))
 (=> x_0_X $x5407)))
(assert
 (let (($x5410 (or z_2_33 z_2_23 z_2_24 z_2_25 z_2_26 z_2_27 z_2_28 z_2_29)))
 (=> x_0_F (= z_0_33 $x5410))))
(assert
 (let (($x5416 (and z_2_33 z_2_23 z_2_24 z_2_25 z_2_26 z_2_27 z_2_28 z_2_29)))
 (let (($x5417 (= z_0_33 $x5416)))
 (=> x_0_G $x5417))))
(assert
 (=> x_0_! (= z_0_34 (not z_2_34))))
(assert
 (let (($x5428 (= z_0_34 z_2_35)))
 (=> x_0_X $x5428)))
(assert
 (let (($x5433 (or z_2_34 z_2_35 z_2_36 z_2_37 z_2_18 z_2_14 z_2_15 z_2_16 z_2_17)))
 (=> x_0_F (= z_0_34 $x5433))))
(assert
 (let (($x5439 (and z_2_34 z_2_35 z_2_36 z_2_37 z_2_18 z_2_14 z_2_15 z_2_16 z_2_17)))
 (let (($x5440 (= z_0_34 $x5439)))
 (=> x_0_G $x5440))))
(assert
 (=> x_0_! (= z_0_35 (not z_2_35))))
(assert
 (let (($x5449 (= z_0_35 z_2_36)))
 (=> x_0_X $x5449)))
(assert
 (let (($x5452 (or z_2_35 z_2_36 z_2_37 z_2_18 z_2_14 z_2_15 z_2_16 z_2_17)))
 (=> x_0_F (= z_0_35 $x5452))))
(assert
 (let (($x5458 (and z_2_35 z_2_36 z_2_37 z_2_18 z_2_14 z_2_15 z_2_16 z_2_17)))
 (let (($x5459 (= z_0_35 $x5458)))
 (=> x_0_G $x5459))))
(assert
 (=> x_0_! (= z_0_36 (not z_2_36))))
(assert
 (let (($x5468 (= z_0_36 z_2_37)))
 (=> x_0_X $x5468)))
(assert
 (let (($x5472 (= z_0_36 (or z_2_36 z_2_37 z_2_18 z_2_14 z_2_15 z_2_16 z_2_17))))
 (=> x_0_F $x5472)))
(assert
 (let (($x5478 (= z_0_36 (and z_2_36 z_2_37 z_2_18 z_2_14 z_2_15 z_2_16 z_2_17))))
 (=> x_0_G $x5478)))
(assert
 (=> x_0_! (= z_0_37 (not z_2_37))))
(assert
 (let (($x5487 (= z_0_37 z_2_18)))
 (=> x_0_X $x5487)))
(assert
 (=> x_0_F (= z_0_37 (or z_2_37 z_2_18 z_2_14 z_2_15 z_2_16 z_2_17))))
(assert
 (let (($x5497 (= z_0_37 (and z_2_37 z_2_18 z_2_14 z_2_15 z_2_16 z_2_17))))
 (=> x_0_G $x5497)))
(assert
 (=> x_0_! (= z_0_38 (not z_2_38))))
(assert
 (let (($x5508 (= z_0_38 z_2_39)))
 (=> x_0_X $x5508)))
(assert
 (let (($x5514 (= z_0_38 (or z_2_38 z_2_39 z_2_40 z_2_41))))
 (=> x_0_F $x5514)))
(assert
 (let (($x5518 (= z_0_38 (and z_2_38 z_2_39 z_2_40 z_2_41))))
 (=> x_0_G $x5518)))
(assert
 (=> x_0_! (= z_0_39 (not z_2_39))))
(assert
 (let (($x5527 (= z_0_39 z_2_40)))
 (=> x_0_X $x5527)))
(assert
 (let (($x5531 (= z_0_39 (or z_2_39 z_2_40 z_2_41))))
 (=> x_0_F $x5531)))
(assert
 (let (($x5535 (= z_0_39 (and z_2_39 z_2_40 z_2_41))))
 (=> x_0_G $x5535)))
(assert
 (=> x_0_! (= z_0_40 (not z_2_40))))
(assert
 (let (($x5544 (= z_0_40 z_2_41)))
 (=> x_0_X $x5544)))
(assert
 (let (($x5548 (= z_0_40 (or z_2_40 z_2_41))))
 (=> x_0_F $x5548)))
(assert
 (let (($x5552 (= z_0_40 (and z_2_40 z_2_41))))
 (=> x_0_G $x5552)))
(assert
 (=> x_0_! (= z_0_41 (not z_2_41))))
(assert
 (let (($x5561 (= z_0_41 z_2_41)))
 (=> x_0_X $x5561)))
(assert
 (=> x_0_F (= z_0_41 (or z_2_41))))
(assert
 (=> x_0_G (= z_0_41 (and z_2_41))))
(assert
 (=> x_0_! (= z_0_42 (not z_2_42))))
(assert
 (let (($x5580 (= z_0_42 z_2_43)))
 (=> x_0_X $x5580)))
(assert
 (let (($x5585 (or z_2_42 z_2_43 z_2_44 z_2_45 z_2_17 z_2_18 z_2_14 z_2_15 z_2_16)))
 (=> x_0_F (= z_0_42 $x5585))))
(assert
 (let (($x5591 (and z_2_42 z_2_43 z_2_44 z_2_45 z_2_17 z_2_18 z_2_14 z_2_15 z_2_16)))
 (let (($x5592 (= z_0_42 $x5591)))
 (=> x_0_G $x5592))))
(assert
 (=> x_0_! (= z_0_43 (not z_2_43))))
(assert
 (let (($x5601 (= z_0_43 z_2_44)))
 (=> x_0_X $x5601)))
(assert
 (let (($x5604 (or z_2_43 z_2_44 z_2_45 z_2_17 z_2_18 z_2_14 z_2_15 z_2_16)))
 (=> x_0_F (= z_0_43 $x5604))))
(assert
 (let (($x5610 (and z_2_43 z_2_44 z_2_45 z_2_17 z_2_18 z_2_14 z_2_15 z_2_16)))
 (let (($x5611 (= z_0_43 $x5610)))
 (=> x_0_G $x5611))))
(assert
 (=> x_0_! (= z_0_44 (not z_2_44))))
(assert
 (let (($x5620 (= z_0_44 z_2_45)))
 (=> x_0_X $x5620)))
(assert
 (let (($x5624 (= z_0_44 (or z_2_44 z_2_45 z_2_17 z_2_18 z_2_14 z_2_15 z_2_16))))
 (=> x_0_F $x5624)))
(assert
 (let (($x5630 (= z_0_44 (and z_2_44 z_2_45 z_2_17 z_2_18 z_2_14 z_2_15 z_2_16))))
 (=> x_0_G $x5630)))
(assert
 (=> x_0_! (= z_0_45 (not z_2_45))))
(assert
 (let (($x5639 (= z_0_45 z_2_17)))
 (=> x_0_X $x5639)))
(assert
 (=> x_0_F (= z_0_45 (or z_2_45 z_2_17 z_2_18 z_2_14 z_2_15 z_2_16))))
(assert
 (let (($x5649 (= z_0_45 (and z_2_45 z_2_17 z_2_18 z_2_14 z_2_15 z_2_16))))
 (=> x_0_G $x5649)))
(assert
 (=> x_0_! (= z_0_46 (not z_2_46))))
(assert
 (let (($x5660 (= z_0_46 z_2_47)))
 (=> x_0_X $x5660)))
(assert
 (let (($x5671 (or z_2_46 z_2_47 z_2_48 z_2_49 z_2_50 z_2_51 z_2_52 z_2_53 z_2_54 z_2_55)))
 (let (($x5672 (= z_0_46 $x5671)))
 (=> x_0_F $x5672))))
(assert
 (let (($x5675 (and z_2_46 z_2_47 z_2_48 z_2_49 z_2_50 z_2_51 z_2_52 z_2_53 z_2_54 z_2_55)))
 (let (($x5676 (= z_0_46 $x5675)))
 (=> x_0_G $x5676))))
(assert
 (=> x_0_! (= z_0_47 (not z_2_47))))
(assert
 (let (($x5685 (= z_0_47 z_2_48)))
 (=> x_0_X $x5685)))
(assert
 (let (($x5688 (or z_2_47 z_2_48 z_2_49 z_2_50 z_2_51 z_2_52 z_2_53 z_2_54 z_2_55)))
 (let (($x5689 (= z_0_47 $x5688)))
 (=> x_0_F $x5689))))
(assert
 (let (($x5692 (and z_2_47 z_2_48 z_2_49 z_2_50 z_2_51 z_2_52 z_2_53 z_2_54 z_2_55)))
 (let (($x5693 (= z_0_47 $x5692)))
 (=> x_0_G $x5693))))
(assert
 (=> x_0_! (= z_0_48 (not z_2_48))))
(assert
 (let (($x5702 (= z_0_48 z_2_49)))
 (=> x_0_X $x5702)))
(assert
 (let (($x5705 (or z_2_48 z_2_49 z_2_50 z_2_51 z_2_52 z_2_53 z_2_54 z_2_55)))
 (let (($x5706 (= z_0_48 $x5705)))
 (=> x_0_F $x5706))))
(assert
 (let (($x5709 (and z_2_48 z_2_49 z_2_50 z_2_51 z_2_52 z_2_53 z_2_54 z_2_55)))
 (let (($x5710 (= z_0_48 $x5709)))
 (=> x_0_G $x5710))))
(assert
 (=> x_0_! (= z_0_49 (not z_2_49))))
(assert
 (let (($x5719 (= z_0_49 z_2_50)))
 (=> x_0_X $x5719)))
(assert
 (let (($x5723 (= z_0_49 (or z_2_49 z_2_50 z_2_51 z_2_52 z_2_53 z_2_54 z_2_55))))
 (=> x_0_F $x5723)))
(assert
 (let (($x5727 (= z_0_49 (and z_2_49 z_2_50 z_2_51 z_2_52 z_2_53 z_2_54 z_2_55))))
 (=> x_0_G $x5727)))
(assert
 (=> x_0_! (= z_0_50 (not z_2_50))))
(assert
 (let (($x5736 (= z_0_50 z_2_51)))
 (=> x_0_X $x5736)))
(assert
 (let (($x5740 (= z_0_50 (or z_2_50 z_2_51 z_2_52 z_2_53 z_2_54 z_2_55))))
 (=> x_0_F $x5740)))
(assert
 (let (($x5744 (= z_0_50 (and z_2_50 z_2_51 z_2_52 z_2_53 z_2_54 z_2_55))))
 (=> x_0_G $x5744)))
(assert
 (=> x_0_! (= z_0_51 (not z_2_51))))
(assert
 (let (($x5753 (= z_0_51 z_2_52)))
 (=> x_0_X $x5753)))
(assert
 (let (($x5757 (= z_0_51 (or z_2_51 z_2_52 z_2_53 z_2_54 z_2_55))))
 (=> x_0_F $x5757)))
(assert
 (let (($x5761 (= z_0_51 (and z_2_51 z_2_52 z_2_53 z_2_54 z_2_55))))
 (=> x_0_G $x5761)))
(assert
 (=> x_0_! (= z_0_52 (not z_2_52))))
(assert
 (let (($x5770 (= z_0_52 z_2_53)))
 (=> x_0_X $x5770)))
(assert
 (let (($x5773 (or z_2_52 z_2_53 z_2_54 z_2_55)))
 (let (($x5774 (= z_0_52 $x5773)))
 (=> x_0_F $x5774))))
(assert
 (let (($x5778 (= z_0_52 (and z_2_52 z_2_53 z_2_54 z_2_55))))
 (=> x_0_G $x5778)))
(assert
 (=> x_0_! (= z_0_53 (not z_2_53))))
(assert
 (let (($x5787 (= z_0_53 z_2_54)))
 (=> x_0_X $x5787)))
(assert
 (=> x_0_F (= z_0_53 (or z_2_53 z_2_54 z_2_55 z_2_52))))
(assert
 (let (($x5796 (= z_0_53 (and z_2_53 z_2_54 z_2_55 z_2_52))))
 (=> x_0_G $x5796)))
(assert
 (=> x_0_! (= z_0_54 (not z_2_54))))
(assert
 (let (($x5805 (= z_0_54 z_2_55)))
 (=> x_0_X $x5805)))
(assert
 (=> x_0_F (= z_0_54 (or z_2_54 z_2_55 z_2_52 z_2_53))))
(assert
 (let (($x5814 (= z_0_54 (and z_2_54 z_2_55 z_2_52 z_2_53))))
 (=> x_0_G $x5814)))
(assert
 (=> x_0_! (= z_0_55 (not z_2_55))))
(assert
 (let (($x5823 (= z_0_55 z_2_52)))
 (=> x_0_X $x5823)))
(assert
 (=> x_0_F (= z_0_55 (or z_2_55 z_2_52 z_2_53 z_2_54))))
(assert
 (let (($x5832 (= z_0_55 (and z_2_55 z_2_52 z_2_53 z_2_54))))
 (=> x_0_G $x5832)))
(assert
 (=> x_0_! (= z_0_56 (not z_2_56))))
(assert
 (let (($x5843 (= z_0_56 z_2_57)))
 (=> x_0_X $x5843)))
(assert
 (let (($x5855 (or z_2_56 z_2_57 z_2_58 z_2_59 z_2_60 z_2_61 z_2_62 z_2_63 z_2_64 z_2_65 z_2_66)))
 (let (($x5856 (= z_0_56 $x5855)))
 (=> x_0_F $x5856))))
(assert
 (let (($x5859 (and z_2_56 z_2_57 z_2_58 z_2_59 z_2_60 z_2_61 z_2_62 z_2_63 z_2_64 z_2_65 z_2_66)))
 (let (($x5860 (= z_0_56 $x5859)))
 (=> x_0_G $x5860))))
(assert
 (=> x_0_! (= z_0_57 (not z_2_57))))
(assert
 (let (($x5869 (= z_0_57 z_2_58)))
 (=> x_0_X $x5869)))
(assert
 (let (($x5872 (or z_2_57 z_2_58 z_2_59 z_2_60 z_2_61 z_2_62 z_2_63 z_2_64 z_2_65 z_2_66)))
 (let (($x5873 (= z_0_57 $x5872)))
 (=> x_0_F $x5873))))
(assert
 (let (($x5876 (and z_2_57 z_2_58 z_2_59 z_2_60 z_2_61 z_2_62 z_2_63 z_2_64 z_2_65 z_2_66)))
 (let (($x5877 (= z_0_57 $x5876)))
 (=> x_0_G $x5877))))
(assert
 (=> x_0_! (= z_0_58 (not z_2_58))))
(assert
 (let (($x5886 (= z_0_58 z_2_59)))
 (=> x_0_X $x5886)))
(assert
 (let (($x5889 (or z_2_58 z_2_59 z_2_60 z_2_61 z_2_62 z_2_63 z_2_64 z_2_65 z_2_66)))
 (let (($x5890 (= z_0_58 $x5889)))
 (=> x_0_F $x5890))))
(assert
 (let (($x5893 (and z_2_58 z_2_59 z_2_60 z_2_61 z_2_62 z_2_63 z_2_64 z_2_65 z_2_66)))
 (let (($x5894 (= z_0_58 $x5893)))
 (=> x_0_G $x5894))))
(assert
 (=> x_0_! (= z_0_59 (not z_2_59))))
(assert
 (let (($x5903 (= z_0_59 z_2_60)))
 (=> x_0_X $x5903)))
(assert
 (let (($x5906 (or z_2_59 z_2_60 z_2_61 z_2_62 z_2_63 z_2_64 z_2_65 z_2_66)))
 (let (($x5907 (= z_0_59 $x5906)))
 (=> x_0_F $x5907))))
(assert
 (let (($x5910 (and z_2_59 z_2_60 z_2_61 z_2_62 z_2_63 z_2_64 z_2_65 z_2_66)))
 (let (($x5911 (= z_0_59 $x5910)))
 (=> x_0_G $x5911))))
(assert
 (=> x_0_! (= z_0_60 (not z_2_60))))
(assert
 (let (($x5920 (= z_0_60 z_2_61)))
 (=> x_0_X $x5920)))
(assert
 (let (($x5924 (= z_0_60 (or z_2_60 z_2_61 z_2_62 z_2_63 z_2_64 z_2_65 z_2_66))))
 (=> x_0_F $x5924)))
(assert
 (let (($x5928 (= z_0_60 (and z_2_60 z_2_61 z_2_62 z_2_63 z_2_64 z_2_65 z_2_66))))
 (=> x_0_G $x5928)))
(assert
 (=> x_0_! (= z_0_61 (not z_2_61))))
(assert
 (let (($x5937 (= z_0_61 z_2_62)))
 (=> x_0_X $x5937)))
(assert
 (let (($x5940 (or z_2_61 z_2_62 z_2_63 z_2_64 z_2_65 z_2_66)))
 (let (($x5941 (= z_0_61 $x5940)))
 (=> x_0_F $x5941))))
(assert
 (let (($x5945 (= z_0_61 (and z_2_61 z_2_62 z_2_63 z_2_64 z_2_65 z_2_66))))
 (=> x_0_G $x5945)))
(assert
 (=> x_0_! (= z_0_62 (not z_2_62))))
(assert
 (let (($x5954 (= z_0_62 z_2_63)))
 (=> x_0_X $x5954)))
(assert
 (=> x_0_F (= z_0_62 (or z_2_62 z_2_63 z_2_64 z_2_65 z_2_66 z_2_61))))
(assert
 (let (($x5963 (= z_0_62 (and z_2_62 z_2_63 z_2_64 z_2_65 z_2_66 z_2_61))))
 (=> x_0_G $x5963)))
(assert
 (=> x_0_! (= z_0_63 (not z_2_63))))
(assert
 (let (($x5972 (= z_0_63 z_2_64)))
 (=> x_0_X $x5972)))
(assert
 (=> x_0_F (= z_0_63 (or z_2_63 z_2_64 z_2_65 z_2_66 z_2_61 z_2_62))))
(assert
 (let (($x5981 (= z_0_63 (and z_2_63 z_2_64 z_2_65 z_2_66 z_2_61 z_2_62))))
 (=> x_0_G $x5981)))
(assert
 (=> x_0_! (= z_0_64 (not z_2_64))))
(assert
 (let (($x5990 (= z_0_64 z_2_65)))
 (=> x_0_X $x5990)))
(assert
 (=> x_0_F (= z_0_64 (or z_2_64 z_2_65 z_2_66 z_2_61 z_2_62 z_2_63))))
(assert
 (let (($x5999 (= z_0_64 (and z_2_64 z_2_65 z_2_66 z_2_61 z_2_62 z_2_63))))
 (=> x_0_G $x5999)))
(assert
 (=> x_0_! (= z_0_65 (not z_2_65))))
(assert
 (let (($x6008 (= z_0_65 z_2_66)))
 (=> x_0_X $x6008)))
(assert
 (=> x_0_F (= z_0_65 (or z_2_65 z_2_66 z_2_61 z_2_62 z_2_63 z_2_64))))
(assert
 (let (($x6017 (= z_0_65 (and z_2_65 z_2_66 z_2_61 z_2_62 z_2_63 z_2_64))))
 (=> x_0_G $x6017)))
(assert
 (=> x_0_! (= z_0_66 (not z_2_66))))
(assert
 (let (($x6026 (= z_0_66 z_2_61)))
 (=> x_0_X $x6026)))
(assert
 (=> x_0_F (= z_0_66 (or z_2_66 z_2_61 z_2_62 z_2_63 z_2_64 z_2_65))))
(assert
 (let (($x6035 (= z_0_66 (and z_2_66 z_2_61 z_2_62 z_2_63 z_2_64 z_2_65))))
 (=> x_0_G $x6035)))
(assert
 (=> x_0_! (= z_0_67 (not z_2_67))))
(assert
 (let (($x6046 (= z_0_67 z_2_68)))
 (=> x_0_X $x6046)))
(assert
 (let (($x6051 (or z_2_67 z_2_68 z_2_69 z_2_70 z_2_54 z_2_55 z_2_52 z_2_53)))
 (=> x_0_F (= z_0_67 $x6051))))
(assert
 (let (($x6057 (and z_2_67 z_2_68 z_2_69 z_2_70 z_2_54 z_2_55 z_2_52 z_2_53)))
 (let (($x6058 (= z_0_67 $x6057)))
 (=> x_0_G $x6058))))
(assert
 (=> x_0_! (= z_0_68 (not z_2_68))))
(assert
 (let (($x6067 (= z_0_68 z_2_69)))
 (=> x_0_X $x6067)))
(assert
 (let (($x6071 (= z_0_68 (or z_2_68 z_2_69 z_2_70 z_2_54 z_2_55 z_2_52 z_2_53))))
 (=> x_0_F $x6071)))
(assert
 (let (($x6077 (= z_0_68 (and z_2_68 z_2_69 z_2_70 z_2_54 z_2_55 z_2_52 z_2_53))))
 (=> x_0_G $x6077)))
(assert
 (=> x_0_! (= z_0_69 (not z_2_69))))
(assert
 (let (($x6086 (= z_0_69 z_2_70)))
 (=> x_0_X $x6086)))
(assert
 (=> x_0_F (= z_0_69 (or z_2_69 z_2_70 z_2_54 z_2_55 z_2_52 z_2_53))))
(assert
 (let (($x6096 (= z_0_69 (and z_2_69 z_2_70 z_2_54 z_2_55 z_2_52 z_2_53))))
 (=> x_0_G $x6096)))
(assert
 (=> x_0_! (= z_0_70 (not z_2_70))))
(assert
 (let (($x6105 (= z_0_70 z_2_54)))
 (=> x_0_X $x6105)))
(assert
 (=> x_0_F (= z_0_70 (or z_2_70 z_2_54 z_2_55 z_2_52 z_2_53))))
(assert
 (let (($x6115 (= z_0_70 (and z_2_70 z_2_54 z_2_55 z_2_52 z_2_53))))
 (=> x_0_G $x6115)))
(assert
 (and true true))
(assert
 (=> x_2_p z_2_0))
(assert
 (let (($x1449 (not z_2_1)))
 (=> x_2_p $x1449)))
(assert
 (let (($x4824 (not z_2_2)))
 (=> x_2_p $x4824)))
(assert
 (let (($x4843 (not z_2_3)))
 (=> x_2_p $x4843)))
(assert
 (=> x_2_p z_2_4))
(assert
 (=> x_2_p z_2_5))
(assert
 (=> x_2_p z_2_6))
(assert
 (=> x_2_p z_2_7))
(assert
 (=> x_2_p z_2_8))
(assert
 (let (($x4954 (not z_2_9)))
 (=> x_2_p $x4954)))
(assert
 (let (($x4972 (not z_2_10)))
 (=> x_2_p $x4972)))
(assert
 (let (($x4990 (not z_2_11)))
 (=> x_2_p $x4990)))
(assert
 (let (($x5014 (not z_2_12)))
 (=> x_2_p $x5014)))
(assert
 (=> x_2_p z_2_13))
(assert
 (let (($x5048 (not z_2_14)))
 (=> x_2_p $x5048)))
(assert
 (=> x_2_p z_2_15))
(assert
 (=> x_2_p z_2_16))
(assert
 (let (($x5101 (not z_2_17)))
 (=> x_2_p $x5101)))
(assert
 (let (($x5119 (not z_2_18)))
 (=> x_2_p $x5119)))
(assert
 (=> x_2_p z_2_19))
(assert
 (let (($x5165 (not z_2_20)))
 (=> x_2_p $x5165)))
(assert
 (=> x_2_p z_2_21))
(assert
 (=> x_2_p z_2_22))
(assert
 (=> x_2_p z_2_23))
(assert
 (=> x_2_p z_2_24))
(assert
 (let (($x5250 (not z_2_25)))
 (=> x_2_p $x5250)))
(assert
 (let (($x5268 (not z_2_26)))
 (=> x_2_p $x5268)))
(assert
 (let (($x5286 (not z_2_27)))
 (=> x_2_p $x5286)))
(assert
 (=> x_2_p z_2_28))
(assert
 (let (($x5322 (not z_2_29)))
 (=> x_2_p $x5322)))
(assert
 (=> x_2_p z_2_30))
(assert
 (=> x_2_p z_2_31))
(assert
 (=> x_2_p z_2_32))
(assert
 (let (($x5401 (not z_2_33)))
 (=> x_2_p $x5401)))
(assert
 (=> x_2_p z_2_34))
(assert
 (=> x_2_p z_2_35))
(assert
 (let (($x5462 (not z_2_36)))
 (=> x_2_p $x5462)))
(assert
 (=> x_2_p z_2_37))
(assert
 (let (($x5501 (not z_2_38)))
 (=> x_2_p $x5501)))
(assert
 (=> x_2_p z_2_39))
(assert
 (=> x_2_p z_2_40))
(assert
 (let (($x5555 (not z_2_41)))
 (=> x_2_p $x5555)))
(assert
 (=> x_2_p z_2_42))
(assert
 (let (($x5595 (not z_2_43)))
 (=> x_2_p $x5595)))
(assert
 (=> x_2_p z_2_44))
(assert
 (let (($x5633 (not z_2_45)))
 (=> x_2_p $x5633)))
(assert
 (let (($x5653 (not z_2_46)))
 (=> x_2_p $x5653)))
(assert
 (let (($x5679 (not z_2_47)))
 (=> x_2_p $x5679)))
(assert
 (let (($x5696 (not z_2_48)))
 (=> x_2_p $x5696)))
(assert
 (=> x_2_p z_2_49))
(assert
 (let (($x5730 (not z_2_50)))
 (=> x_2_p $x5730)))
(assert
 (let (($x5747 (not z_2_51)))
 (=> x_2_p $x5747)))
(assert
 (=> x_2_p z_2_52))
(assert
 (let (($x5781 (not z_2_53)))
 (=> x_2_p $x5781)))
(assert
 (=> x_2_p z_2_54))
(assert
 (=> x_2_p z_2_55))
(assert
 (=> x_2_p z_2_56))
(assert
 (=> x_2_p z_2_57))
(assert
 (let (($x5880 (not z_2_58)))
 (=> x_2_p $x5880)))
(assert
 (let (($x5897 (not z_2_59)))
 (=> x_2_p $x5897)))
(assert
 (let (($x5914 (not z_2_60)))
 (=> x_2_p $x5914)))
(assert
 (=> x_2_p z_2_61))
(assert
 (let (($x5948 (not z_2_62)))
 (=> x_2_p $x5948)))
(assert
 (let (($x5966 (not z_2_63)))
 (=> x_2_p $x5966)))
(assert
 (let (($x5984 (not z_2_64)))
 (=> x_2_p $x5984)))
(assert
 (=> x_2_p z_2_65))
(assert
 (=> x_2_p z_2_66))
(assert
 (=> x_2_p z_2_67))
(assert
 (let (($x6061 (not z_2_68)))
 (=> x_2_p $x6061)))
(assert
 (let (($x6080 (not z_2_69)))
 (=> x_2_p $x6080)))
(assert
 (=> x_2_p z_2_70))
(assert
 (or x_2_p))
(assert
 (let (($x6136 (not x_2_->)))
 (let (($x6134 (not x_2_U)))
 (let (($x6132 (not x_2_v)))
 (let (($x6130 (not x_2_&)))
 (let (($x6128 (not x_2_X)))
 (let (($x6126 (not x_2_!)))
 (let (($x6124 (not x_2_F)))
 (let (($x6122 (not x_2_G)))
 (and $x6122 $x6124 $x6126 $x6128 $x6130 $x6132 $x6134 $x6136))))))))))
(check-sat)

